NAME : d198.opt.tour
COMMENT : Tour result for d198.tsp (15897)
TYPE : TOUR
DIMENSION : 198
TOUR_SECTION
35
39
47
51
50
64
78
77
76
81
65
52
46
53
62
75
82
83
74
66
61
54
45
38
31
32
37
36
33
34
27
26
25
24
28
30
29
23
22
21
20
19
18
17
16
15
14
41
40
1
2
7
6
3
4
5
8
9
10
11
12
13
86
100
85
71
69
58
57
42
43
44
55
56
59
60
67
68
72
73
70
84
87
99
88
98
97
89
90
96
95
101
94
93
102
103
104
105
114
113
112
116
115
122
121
117
118
119
120
123
124
169
125
126
130
131
132
133
135
134
140
138
139
154
155
156
157
158
159
160
161
162
152
153
148
149
150
144
145
146
147
142
143
141
136
129
127
170
128
137
151
163
164
165
166
172
171
190
189
188
191
192
193
186
187
196
197
198
195
194
179
185
184
180
178
174
173
176
175
177
181
183
182
168
167
108
109
110
111
107
106
92
91
80
79
63
49
48
-1
EOF